15
-1 154 550 896 652 342 194 162 762 597 447 527 271 475 128 
154 -1 485 742 594 245 347 142 611 517 347 467 118 443 282 
550 485 -1 771 1037 686 691 388 747 69 171 918 450 916 625 
896 742 771 -1 805 667 1089 813 181 724 645 761 626 840 1025 
652 594 1037 805 -1 355 745 735 624 1047 870 127 589 192 727 
342 245 686 667 355 -1 494 387 499 702 524 231 236 239 450 
194 347 691 1089 745 494 -1 328 949 747 617 631 465 554 70 
162 142 388 813 735 387 328 -1 703 434 289 608 208 578 258 
762 611 747 181 624 499 949 703 -1 714 596 580 501 660 890 
597 517 69 724 1047 702 747 434 714 -1 178 930 467 936 679 
447 347 171 645 870 524 617 289 596 178 -1 753 289 758 547 
527 467 918 761 127 231 631 608 580 930 753 -1 467 100 608 
271 118 450 626 589 236 465 208 501 467 289 467 -1 469 400 
475 443 916 840 192 239 554 578 660 936 758 100 469 -1 539 
128 282 625 1025 727 450 70 258 890 679 547 608 400 539 -1 
